p cnf 1113 2153 
-1  2 0 
-3  2 0 
-1 -3  4 0 
 2 -4 0 
-5  6 0 
-7  6 0 
-5 -7  8 0 
 6 -8 0 
-2  9 0 
-6  9 0 
-2 -6  10 0 
 9 -10 0 
-4  11 0 
-8  11 0 
-4 -8  12 0 
 11 -12 0 
-11  13 0 
-10  13 0 
-11 -10  14 0 
 13 -14 0 
-15  16 0 
-17  16 0 
-15 -17  18 0 
 16 -18 0 
-19  20 0 
-21  20 0 
-19 -21  22 0 
 20 -22 0 
-16  23 0 
-20  23 0 
-16 -20  24 0 
 23 -24 0 
-18  25 0 
-22  25 0 
-18 -22  26 0 
 25 -26 0 
-25  27 0 
-24  27 0 
-25 -24  28 0 
 27 -28 0 
-9  29 0 
-23  29 0 
-9 -23  30 0 
 29 -30 0 
-14  31 0 
-28  31 0 
-14 -28  32 0 
 31 -32 0 
-31  33 0 
-30  33 0 
-31 -30  34 0 
 33 -34 0 
-13  35 0 
-27  35 0 
-13 -27  36 0 
 35 -36 0 
-12  37 0 
-26  37 0 
-12 -26  38 0 
 37 -38 0 
-37  39 0 
-36  39 0 
-37 -36  40 0 
 39 -40 0 
-35  41 0 
-33  41 0 
-35 -33  42 0 
 41 -42 0 
-39  43 0 
-34  43 0 
-39 -34  44 0 
 43 -44 0 
-40  45 0 
-32  45 0 
-40 -32  46 0 
 45 -46 0 
-47  48 0 
-49  48 0 
-47 -49  50 0 
 48 -50 0 
-51  52 0 
-53  52 0 
-51 -53  54 0 
 52 -54 0 
-48  55 0 
-52  55 0 
-48 -52  56 0 
 55 -56 0 
-50  57 0 
-54  57 0 
-50 -54  58 0 
 57 -58 0 
-57  59 0 
-56  59 0 
-57 -56  60 0 
 59 -60 0 
-61  62 0 
-63  62 0 
-61 -63  64 0 
 62 -64 0 
-65  66 0 
-67  66 0 
-65 -67  68 0 
 66 -68 0 
-62  69 0 
-66  69 0 
-62 -66  70 0 
 69 -70 0 
-64  71 0 
-68  71 0 
-64 -68  72 0 
 71 -72 0 
-71  73 0 
-70  73 0 
-71 -70  74 0 
 73 -74 0 
-55  75 0 
-69  75 0 
-55 -69  76 0 
 75 -76 0 
-60  77 0 
-74  77 0 
-60 -74  78 0 
 77 -78 0 
-77  79 0 
-76  79 0 
-77 -76  80 0 
 79 -80 0 
-59  81 0 
-73  81 0 
-59 -73  82 0 
 81 -82 0 
-58  83 0 
-72  83 0 
-58 -72  84 0 
 83 -84 0 
-83  85 0 
-82  85 0 
-83 -82  86 0 
 85 -86 0 
-81  87 0 
-79  87 0 
-81 -79  88 0 
 87 -88 0 
-85  89 0 
-80  89 0 
-85 -80  90 0 
 89 -90 0 
-86  91 0 
-78  91 0 
-86 -78  92 0 
 91 -92 0 
-29  93 0 
-75  93 0 
-29 -75  94 0 
 93 -94 0 
-44  95 0 
-90  95 0 
-44 -90  96 0 
 95 -96 0 
-95  97 0 
-94  97 0 
-95 -94  98 0 
 97 -98 0 
-42  99 0 
-88  99 0 
-42 -88  100 0 
 99 -100 0 
-46  101 0 
-92  101 0 
-46 -92  102 0 
 101 -102 0 
-101  103 0 
-100  103 0 
-101 -100  104 0 
 103 -104 0 
-99  105 0 
-97  105 0 
-99 -97  106 0 
 105 -106 0 
-103  107 0 
-98  107 0 
-103 -98  108 0 
 107 -108 0 
-104  109 0 
-96  109 0 
-104 -96  110 0 
 109 -110 0 
-41  111 0 
-87  111 0 
-41 -87  112 0 
 111 -112 0 
-45  113 0 
-91  113 0 
-45 -91  114 0 
 113 -114 0 
-113  115 0 
-112  115 0 
-113 -112  116 0 
 115 -116 0 
-43  117 0 
-89  117 0 
-43 -89  118 0 
 117 -118 0 
-38  119 0 
-84  119 0 
-38 -84 0 
-119  120 0 
-118  120 0 
-119 -118  121 0 
 120 -121 0 
-117  122 0 
-115  122 0 
-117 -115  123 0 
 122 -123 0 
-120  124 0 
-116  124 0 
-120 -116  125 0 
 124 -125 0 
-121  126 0 
-114  126 0 
-121 -114  127 0 
 126 -127 0 
-111  128 0 
-105  128 0 
-111 -105  129 0 
 128 -129 0 
-122  130 0 
-106  130 0 
-122 -106  131 0 
 130 -131 0 
-123  132 0 
-107  132 0 
-123 -107  133 0 
 132 -133 0 
-124  134 0 
-108  134 0 
-124 -108  135 0 
 134 -135 0 
-125  136 0 
-109  136 0 
-125 -109  137 0 
 136 -137 0 
-126  138 0 
-110  138 0 
-126 -110  139 0 
 138 -139 0 
-127  140 0 
-102  140 0 
-127 -102  141 0 
 140 -141 0 
-142  143 0 
-144  143 0 
-142 -144  145 0 
 143 -145 0 
-146  147 0 
-148  147 0 
-146 -148  149 0 
 147 -149 0 
-143  150 0 
-147  150 0 
-143 -147  151 0 
 150 -151 0 
-145  152 0 
-149  152 0 
-145 -149  153 0 
 152 -153 0 
-152  154 0 
-151  154 0 
-152 -151  155 0 
 154 -155 0 
-156  157 0 
-158  157 0 
-156 -158  159 0 
 157 -159 0 
-160  161 0 
-162  161 0 
-160 -162  163 0 
 161 -163 0 
-157  164 0 
-161  164 0 
-157 -161  165 0 
 164 -165 0 
-159  166 0 
-163  166 0 
-159 -163  167 0 
 166 -167 0 
-166  168 0 
-165  168 0 
-166 -165  169 0 
 168 -169 0 
-150  170 0 
-164  170 0 
-150 -164  171 0 
 170 -171 0 
-155  172 0 
-169  172 0 
-155 -169  173 0 
 172 -173 0 
-172  174 0 
-171  174 0 
-172 -171  175 0 
 174 -175 0 
-154  176 0 
-168  176 0 
-154 -168  177 0 
 176 -177 0 
-153  178 0 
-167  178 0 
-153 -167  179 0 
 178 -179 0 
-178  180 0 
-177  180 0 
-178 -177  181 0 
 180 -181 0 
-176  182 0 
-174  182 0 
-176 -174  183 0 
 182 -183 0 
-180  184 0 
-175  184 0 
-180 -175  185 0 
 184 -185 0 
-181  186 0 
-173  186 0 
-181 -173  187 0 
 186 -187 0 
-188  189 0 
-190  189 0 
-188 -190  191 0 
 189 -191 0 
-192  193 0 
-194  193 0 
-192 -194  195 0 
 193 -195 0 
-189  196 0 
-193  196 0 
-189 -193  197 0 
 196 -197 0 
-191  198 0 
-195  198 0 
-191 -195  199 0 
 198 -199 0 
-198  200 0 
-197  200 0 
-198 -197  201 0 
 200 -201 0 
-202  203 0 
-204  203 0 
-202 -204  205 0 
 203 -205 0 
-206  207 0 
-208  207 0 
-206 -208  209 0 
 207 -209 0 
-203  210 0 
-207  210 0 
-203 -207  211 0 
 210 -211 0 
-205  212 0 
-209  212 0 
-205 -209  213 0 
 212 -213 0 
-212  214 0 
-211  214 0 
-212 -211  215 0 
 214 -215 0 
-196  216 0 
-210  216 0 
-196 -210  217 0 
 216 -217 0 
-201  218 0 
-215  218 0 
-201 -215  219 0 
 218 -219 0 
-218  220 0 
-217  220 0 
-218 -217  221 0 
 220 -221 0 
-200  222 0 
-214  222 0 
-200 -214  223 0 
 222 -223 0 
-199  224 0 
-213  224 0 
-199 -213  225 0 
 224 -225 0 
-224  226 0 
-223  226 0 
-224 -223  227 0 
 226 -227 0 
-222  228 0 
-220  228 0 
-222 -220  229 0 
 228 -229 0 
-226  230 0 
-221  230 0 
-226 -221  231 0 
 230 -231 0 
-227  232 0 
-219  232 0 
-227 -219  233 0 
 232 -233 0 
-170  234 0 
-216  234 0 
-170 -216  235 0 
 234 -235 0 
-185  236 0 
-231  236 0 
-185 -231  237 0 
 236 -237 0 
-236  238 0 
-235  238 0 
-236 -235  239 0 
 238 -239 0 
-183  240 0 
-229  240 0 
-183 -229  241 0 
 240 -241 0 
-187  242 0 
-233  242 0 
-187 -233  243 0 
 242 -243 0 
-242  244 0 
-241  244 0 
-242 -241  245 0 
 244 -245 0 
-240  246 0 
-238  246 0 
-240 -238  247 0 
 246 -247 0 
-244  248 0 
-239  248 0 
-244 -239  249 0 
 248 -249 0 
-245  250 0 
-237  250 0 
-245 -237  251 0 
 250 -251 0 
-182  252 0 
-228  252 0 
-182 -228  253 0 
 252 -253 0 
-186  254 0 
-232  254 0 
-186 -232  255 0 
 254 -255 0 
-254  256 0 
-253  256 0 
-254 -253  257 0 
 256 -257 0 
-184  258 0 
-230  258 0 
-184 -230  259 0 
 258 -259 0 
-179  260 0 
-225  260 0 
-179 -225 0 
-260  261 0 
-259  261 0 
-260 -259  262 0 
 261 -262 0 
-258  263 0 
-256  263 0 
-258 -256  264 0 
 263 -264 0 
-261  265 0 
-257  265 0 
-261 -257  266 0 
 265 -266 0 
-262  267 0 
-255  267 0 
-262 -255  268 0 
 267 -268 0 
-252  269 0 
-246  269 0 
-252 -246  270 0 
 269 -270 0 
-263  271 0 
-247  271 0 
-263 -247  272 0 
 271 -272 0 
-264  273 0 
-248  273 0 
-264 -248  274 0 
 273 -274 0 
-265  275 0 
-249  275 0 
-265 -249  276 0 
 275 -276 0 
-266  277 0 
-250  277 0 
-266 -250  278 0 
 277 -278 0 
-267  279 0 
-251  279 0 
-267 -251  280 0 
 279 -280 0 
-268  281 0 
-243  281 0 
-268 -243  282 0 
 281 -282 0 
-93  283 0 
-234  283 0 
-93 -234  284 0 
 283 -284 0 
-135  285 0 
-276  285 0 
-135 -276  286 0 
 285 -286 0 
-285  287 0 
-284  287 0 
-285 -284  288 0 
 287 -288 0 
-131  289 0 
-272  289 0 
-131 -272  290 0 
 289 -290 0 
-139  291 0 
-280  291 0 
-139 -280 0 
-291  292 0 
-290  292 0 
-291 -290  293 0 
 292 -293 0 
-289  294 0 
-287  294 0 
-289 -287  295 0 
 294 -295 0 
-292  296 0 
-288  296 0 
-292 -288  297 0 
 296 -297 0 
-293  298 0 
-286  298 0 
-293 -286  299 0 
 298 -299 0 
-129  300 0 
-270  300 0 
-129 -270  301 0 
 300 -301 0 
-137  302 0 
-278  302 0 
-137 -278  303 0 
 302 -303 0 
-302  304 0 
-301  304 0 
-302 -301  305 0 
 304 -305 0 
-133  306 0 
-274  306 0 
-133 -274  307 0 
 306 -307 0 
-141  308 0 
-282  308 0 
-141 -282 0 
-308  309 0 
-307  309 0 
-308 -307  310 0 
 309 -310 0 
-306  311 0 
-304  311 0 
-306 -304  312 0 
 311 -312 0 
-309  313 0 
-305  313 0 
-309 -305  314 0 
 313 -314 0 
-310  315 0 
-303  315 0 
-310 -303 0 
-300  316 0 
-294  316 0 
-300 -294  317 0 
 316 -317 0 
-311  318 0 
-295  318 0 
-311 -295  319 0 
 318 -319 0 
-312  320 0 
-296  320 0 
-312 -296  321 0 
 320 -321 0 
-313  322 0 
-297  322 0 
-313 -297 0 
-314  323 0 
-298  323 0 
-314 -298  324 0 
 323 -324 0 
-315  325 0 
-299  325 0 
-315 -299 0 
-128  326 0 
-269  326 0 
-128 -269  327 0 
 326 -327 0 
-136  328 0 
-277  328 0 
-136 -277  329 0 
 328 -329 0 
-328  330 0 
-327  330 0 
-328 -327  331 0 
 330 -331 0 
-132  332 0 
-273  332 0 
-132 -273  333 0 
 332 -333 0 
-140  334 0 
-281  334 0 
-140 -281 0 
-334  335 0 
-333  335 0 
-334 -333  336 0 
 335 -336 0 
-332  337 0 
-330  337 0 
-332 -330  338 0 
 337 -338 0 
-335  339 0 
-331  339 0 
-335 -331 0 
-336  340 0 
-329  340 0 
-336 -329 0 
-130  341 0 
-271  341 0 
-130 -271  342 0 
 341 -342 0 
-138  343 0 
-279  343 0 
-138 -279 0 
-343  344 0 
-342  344 0 
-343 -342 0 
-134  345 0 
-275  345 0 
-134 -275 0 
-345  346 0 
-344  346 0 
-345 -344  347 0 
 346 -347 0 
-341  348 0 
-337  348 0 
-341 -337  349 0 
 348 -349 0 
-346  350 0 
-338  350 0 
-346 -338  351 0 
 350 -351 0 
-347  352 0 
-339  352 0 
-347 -339  353 0 
 352 -353 0 
-326  354 0 
-316  354 0 
-326 -316  355 0 
 354 -355 0 
-348  356 0 
-317  356 0 
-348 -317  357 0 
 356 -357 0 
-349  358 0 
-318  358 0 
-349 -318  359 0 
 358 -359 0 
-350  360 0 
-319  360 0 
-350 -319  361 0 
 360 -361 0 
-351  362 0 
-320  362 0 
-351 -320  363 0 
 362 -363 0 
-352  364 0 
-321  364 0 
-352 -321  365 0 
 364 -365 0 
-353  366 0 
-322  366 0 
-353 -322 0 
-340  367 0 
-324  367 0 
-340 -324  368 0 
 367 -368 0 
-369  370 0 
-371  370 0 
-369 -371  372 0 
 370 -372 0 
-373  374 0 
-375  374 0 
-373 -375  376 0 
 374 -376 0 
-370  377 0 
-374  377 0 
-370 -374  378 0 
 377 -378 0 
-372  379 0 
-376  379 0 
-372 -376  380 0 
 379 -380 0 
-379  381 0 
-378  381 0 
-379 -378  382 0 
 381 -382 0 
-383  384 0 
-385  384 0 
-383 -385  386 0 
 384 -386 0 
-387  388 0 
-389  388 0 
-387 -389  390 0 
 388 -390 0 
-384  391 0 
-388  391 0 
-384 -388  392 0 
 391 -392 0 
-386  393 0 
-390  393 0 
-386 -390  394 0 
 393 -394 0 
-393  395 0 
-392  395 0 
-393 -392  396 0 
 395 -396 0 
-377  397 0 
-391  397 0 
-377 -391  398 0 
 397 -398 0 
-382  399 0 
-396  399 0 
-382 -396  400 0 
 399 -400 0 
-399  401 0 
-398  401 0 
-399 -398  402 0 
 401 -402 0 
-381  403 0 
-395  403 0 
-381 -395  404 0 
 403 -404 0 
-380  405 0 
-394  405 0 
-380 -394  406 0 
 405 -406 0 
-405  407 0 
-404  407 0 
-405 -404  408 0 
 407 -408 0 
-403  409 0 
-401  409 0 
-403 -401  410 0 
 409 -410 0 
-407  411 0 
-402  411 0 
-407 -402  412 0 
 411 -412 0 
-408  413 0 
-400  413 0 
-408 -400  414 0 
 413 -414 0 
-415  416 0 
-417  416 0 
-415 -417  418 0 
 416 -418 0 
-419  420 0 
-421  420 0 
-419 -421  422 0 
 420 -422 0 
-416  423 0 
-420  423 0 
-416 -420  424 0 
 423 -424 0 
-418  425 0 
-422  425 0 
-418 -422  426 0 
 425 -426 0 
-425  427 0 
-424  427 0 
-425 -424  428 0 
 427 -428 0 
-429  430 0 
-431  430 0 
-429 -431  432 0 
 430 -432 0 
-433  434 0 
-435  434 0 
-433 -435  436 0 
 434 -436 0 
-430  437 0 
-434  437 0 
-430 -434  438 0 
 437 -438 0 
-432  439 0 
-436  439 0 
-432 -436  440 0 
 439 -440 0 
-439  441 0 
-438  441 0 
-439 -438  442 0 
 441 -442 0 
-423  443 0 
-437  443 0 
-423 -437  444 0 
 443 -444 0 
-428  445 0 
-442  445 0 
-428 -442  446 0 
 445 -446 0 
-445  447 0 
-444  447 0 
-445 -444  448 0 
 447 -448 0 
-427  449 0 
-441  449 0 
-427 -441  450 0 
 449 -450 0 
-426  451 0 
-440  451 0 
-426 -440  452 0 
 451 -452 0 
-451  453 0 
-450  453 0 
-451 -450  454 0 
 453 -454 0 
-449  455 0 
-447  455 0 
-449 -447  456 0 
 455 -456 0 
-453  457 0 
-448  457 0 
-453 -448  458 0 
 457 -458 0 
-454  459 0 
-446  459 0 
-454 -446  460 0 
 459 -460 0 
-397  461 0 
-443  461 0 
-397 -443  462 0 
 461 -462 0 
-412  463 0 
-458  463 0 
-412 -458  464 0 
 463 -464 0 
-463  465 0 
-462  465 0 
-463 -462  466 0 
 465 -466 0 
-410  467 0 
-456  467 0 
-410 -456  468 0 
 467 -468 0 
-414  469 0 
-460  469 0 
-414 -460  470 0 
 469 -470 0 
-469  471 0 
-468  471 0 
-469 -468  472 0 
 471 -472 0 
-467  473 0 
-465  473 0 
-467 -465  474 0 
 473 -474 0 
-471  475 0 
-466  475 0 
-471 -466  476 0 
 475 -476 0 
-472  477 0 
-464  477 0 
-472 -464  478 0 
 477 -478 0 
-409  479 0 
-455  479 0 
-409 -455  480 0 
 479 -480 0 
-413  481 0 
-459  481 0 
-413 -459  482 0 
 481 -482 0 
-481  483 0 
-480  483 0 
-481 -480  484 0 
 483 -484 0 
-411  485 0 
-457  485 0 
-411 -457  486 0 
 485 -486 0 
-406  487 0 
-452  487 0 
-406 -452 0 
-487  488 0 
-486  488 0 
-487 -486  489 0 
 488 -489 0 
-485  490 0 
-483  490 0 
-485 -483  491 0 
 490 -491 0 
-488  492 0 
-484  492 0 
-488 -484  493 0 
 492 -493 0 
-489  494 0 
-482  494 0 
-489 -482  495 0 
 494 -495 0 
-479  496 0 
-473  496 0 
-479 -473  497 0 
 496 -497 0 
-490  498 0 
-474  498 0 
-490 -474  499 0 
 498 -499 0 
-491  500 0 
-475  500 0 
-491 -475  501 0 
 500 -501 0 
-492  502 0 
-476  502 0 
-492 -476  503 0 
 502 -503 0 
-493  504 0 
-477  504 0 
-493 -477  505 0 
 504 -505 0 
-494  506 0 
-478  506 0 
-494 -478  507 0 
 506 -507 0 
-495  508 0 
-470  508 0 
-495 -470  509 0 
 508 -509 0 
-499  510 0 
-503  510 0 
-499 -503  511 0 
 510 -511 0 
-501  512 0 
-505  512 0 
-501 -505  513 0 
 512 -513 0 
-497  514 0 
-510  514 0 
-497 -510  515 0 
 514 -515 0 
-512  516 0 
-511  516 0 
-512 -511  517 0 
 516 -517 0 
-513  518 0 
-507  518 0 
-513 -507  519 0 
 518 -519 0 
-500  520 0 
-504  520 0 
-500 -504  521 0 
 520 -521 0 
-502  522 0 
-506  522 0 
-502 -506  523 0 
 522 -523 0 
-498  524 0 
-520  524 0 
-498 -520  525 0 
 524 -525 0 
-522  526 0 
-521  526 0 
-522 -521  527 0 
 526 -527 0 
-523  528 0 
-508  528 0 
-523 -508  529 0 
 528 -529 0 
-496  530 0 
-514  530 0 
-496 -514  531 0 
 530 -531 0 
-524  532 0 
-515  532 0 
-524 -515  533 0 
 532 -533 0 
-525  534 0 
-516  534 0 
-525 -516  535 0 
 534 -535 0 
-526  536 0 
-517  536 0 
-526 -517  537 0 
 536 -537 0 
-527  538 0 
-518  538 0 
-527 -518  539 0 
 538 -539 0 
-528  540 0 
-519  540 0 
-528 -519  541 0 
 540 -541 0 
-529  542 0 
-509  542 0 
-529 -509 0 
-283 -461  543 0 
 544 -543 0 
-361  545 0 
-537  545 0 
-361 -537 0 
-545 -543  546 0 
 544 -546 0 
-357 -533  547 0 
 544 -547 0 
-368  548 0 
-547  548 0 
-368 -547 0 
-365  549 0 
-541  549 0 
-365 -541 0 
-549  550 0 
-548  550 0 
-549 -548 0 
-550  551 0 
-546  551 0 
-550 -546 0 
-355 -531  552 0 
 544 -552 0 
-363  553 0 
-539  553 0 
-363 -539 0 
-553  554 0 
-552  554 0 
-553 -552 0 
-359  555 0 
-535  555 0 
-359 -535 0 
-555 -554  556 0 
 544 -556 0 
-556 -551  557 0 
 544 -557 0 
-354 -530  558 0 
 544 -558 0 
-323  559 0 
-558  559 0 
-323 -558 0 
-362  560 0 
-538  560 0 
-362 -538 0 
-560 -559  561 0 
 544 -561 0 
-358 -534  562 0 
 544 -562 0 
-325  563 0 
-562  563 0 
-325 -562 0 
-366  564 0 
-542  564 0 
-366 -542 0 
-564  565 0 
-563  565 0 
-564 -563 0 
-565  566 0 
-561  566 0 
-565 -561 0 
-356 -532  567 0 
 544 -567 0 
-367  568 0 
-567  568 0 
-367 -567 0 
-364  569 0 
-540  569 0 
-364 -540 0 
-569  570 0 
-568  570 0 
-569 -568 0 
-360  571 0 
-536  571 0 
-360 -536 0 
-571 -570  572 0 
 544 -572 0 
-572  573 0 
-566  573 0 
-572 -566 0 
-573 -557 0 
 1  3 -574 0 
 1 -575 0 
 3 -575 0 
 574 -575 0 
 5  7 -576 0 
 5 -577 0 
 7 -577 0 
 576 -577 0 
 574  576 -578 0 
 574 -579 0 
 576 -579 0 
 578 -579 0 
 575  577 -580 0 
 575 -581 0 
 577 -581 0 
 580 -581 0 
 580  579 -582 0 
 580 -583 0 
 579 -583 0 
 582 -583 0 
 15  17 -584 0 
 15 -585 0 
 17 -585 0 
 584 -585 0 
 19  21 -586 0 
 19 -587 0 
 21 -587 0 
 586 -587 0 
 584  586 -588 0 
 584 -589 0 
 586 -589 0 
 588 -589 0 
 585  587 -590 0 
 585 -591 0 
 587 -591 0 
 590 -591 0 
 590  589 -592 0 
 590 -593 0 
 589 -593 0 
 592 -593 0 
 578  588 -594 0 
 578 -595 0 
 588 -595 0 
 594 -595 0 
 583  593 -596 0 
 583 -597 0 
 593 -597 0 
 596 -597 0 
 596  595 -598 0 
 596 -599 0 
 595 -599 0 
 598 -599 0 
 582  592 -600 0 
 582 -601 0 
 592 -601 0 
 600 -601 0 
 581  591 -602 0 
 581 -603 0 
 591 -603 0 
 602 -603 0 
 602  601 -604 0 
 602 -605 0 
 601 -605 0 
 604 -605 0 
 600  598 -606 0 
 600 -607 0 
 598 -607 0 
 606 -607 0 
 604  599 -608 0 
 604 -609 0 
 599 -609 0 
 608 -609 0 
 605  597 -610 0 
 605 -611 0 
 597 -611 0 
 610 -611 0 
 47  49 -612 0 
 47 -613 0 
 49 -613 0 
 612 -613 0 
 51  53 -614 0 
 51 -615 0 
 53 -615 0 
 614 -615 0 
 612  614 -616 0 
 612 -617 0 
 614 -617 0 
 616 -617 0 
 613  615 -618 0 
 613 -619 0 
 615 -619 0 
 618 -619 0 
 618  617 -620 0 
 618 -621 0 
 617 -621 0 
 620 -621 0 
 61  63 -622 0 
 61 -623 0 
 63 -623 0 
 622 -623 0 
 65  67 -624 0 
 65 -625 0 
 67 -625 0 
 624 -625 0 
 622  624 -626 0 
 622 -627 0 
 624 -627 0 
 626 -627 0 
 623  625 -628 0 
 623 -629 0 
 625 -629 0 
 628 -629 0 
 628  627 -630 0 
 628 -631 0 
 627 -631 0 
 630 -631 0 
 616  626 -632 0 
 616 -633 0 
 626 -633 0 
 632 -633 0 
 621  631 -634 0 
 621 -635 0 
 631 -635 0 
 634 -635 0 
 634  633 -636 0 
 634 -637 0 
 633 -637 0 
 636 -637 0 
 620  630 -638 0 
 620 -639 0 
 630 -639 0 
 638 -639 0 
 619  629 -640 0 
 619 -641 0 
 629 -641 0 
 640 -641 0 
 640  639 -642 0 
 640 -643 0 
 639 -643 0 
 642 -643 0 
 638  636 -644 0 
 638 -645 0 
 636 -645 0 
 644 -645 0 
 642  637 -646 0 
 642 -647 0 
 637 -647 0 
 646 -647 0 
 643  635 -648 0 
 643 -649 0 
 635 -649 0 
 648 -649 0 
 594  632 -650 0 
 594 -651 0 
 632 -651 0 
 650 -651 0 
 609  647 -652 0 
 609 -653 0 
 647 -653 0 
 652 -653 0 
 652  651 -654 0 
 652 -655 0 
 651 -655 0 
 654 -655 0 
 607  645 -656 0 
 607 -657 0 
 645 -657 0 
 656 -657 0 
 611  649 -658 0 
 611 -659 0 
 649 -659 0 
 658 -659 0 
 658  657 -660 0 
 658 -661 0 
 657 -661 0 
 660 -661 0 
 656  654 -662 0 
 656 -663 0 
 654 -663 0 
 662 -663 0 
 660  655 -664 0 
 660 -665 0 
 655 -665 0 
 664 -665 0 
 661  653 -666 0 
 661 -667 0 
 653 -667 0 
 666 -667 0 
 606  644 -668 0 
 606 -669 0 
 644 -669 0 
 668 -669 0 
 610  648 -670 0 
 610 -671 0 
 648 -671 0 
 670 -671 0 
 670  669 -672 0 
 670 -673 0 
 669 -673 0 
 672 -673 0 
 608  646 -674 0 
 608 -675 0 
 646 -675 0 
 674 -675 0 
 603  641 -676 0 
 603 -677 0 
 641 -677 0 
 676 -677 0 
 676  675 -678 0 
 676 -679 0 
 675 -679 0 
 678 -679 0 
 674  672 -680 0 
 674 -681 0 
 672 -681 0 
 680 -681 0 
 678  673 -682 0 
 678 -683 0 
 673 -683 0 
 682 -683 0 
 679  671 -684 0 
 679 -685 0 
 671 -685 0 
 684 -685 0 
 668  662 -686 0 
 668 -687 0 
 662 -687 0 
 686 -687 0 
 680  663 -688 0 
 680 -689 0 
 663 -689 0 
 688 -689 0 
 681  664 -690 0 
 681 -691 0 
 664 -691 0 
 690 -691 0 
 682  665 -692 0 
 682 -693 0 
 665 -693 0 
 692 -693 0 
 683  666 -694 0 
 683 -695 0 
 666 -695 0 
 694 -695 0 
 684  667 -696 0 
 684 -697 0 
 667 -697 0 
 696 -697 0 
 685  659 -698 0 
 685 -699 0 
 659 -699 0 
 698 -699 0 
 142  144 -700 0 
 142 -701 0 
 144 -701 0 
 700 -701 0 
 146  148 -702 0 
 146 -703 0 
 148 -703 0 
 702 -703 0 
 700  702 -704 0 
 700 -705 0 
 702 -705 0 
 704 -705 0 
 701  703 -706 0 
 701 -707 0 
 703 -707 0 
 706 -707 0 
 706  705 -708 0 
 706 -709 0 
 705 -709 0 
 708 -709 0 
 156  158 -710 0 
 156 -711 0 
 158 -711 0 
 710 -711 0 
 160  162 -712 0 
 160 -713 0 
 162 -713 0 
 712 -713 0 
 710  712 -714 0 
 710 -715 0 
 712 -715 0 
 714 -715 0 
 711  713 -716 0 
 711 -717 0 
 713 -717 0 
 716 -717 0 
 716  715 -718 0 
 716 -719 0 
 715 -719 0 
 718 -719 0 
 704  714 -720 0 
 704 -721 0 
 714 -721 0 
 720 -721 0 
 709  719 -722 0 
 709 -723 0 
 719 -723 0 
 722 -723 0 
 722  721 -724 0 
 722 -725 0 
 721 -725 0 
 724 -725 0 
 708  718 -726 0 
 708 -727 0 
 718 -727 0 
 726 -727 0 
 707  717 -728 0 
 707 -729 0 
 717 -729 0 
 728 -729 0 
 728  727 -730 0 
 728 -731 0 
 727 -731 0 
 730 -731 0 
 726  724 -732 0 
 726 -733 0 
 724 -733 0 
 732 -733 0 
 730  725 -734 0 
 730 -735 0 
 725 -735 0 
 734 -735 0 
 731  723 -736 0 
 731 -737 0 
 723 -737 0 
 736 -737 0 
 188  190 -738 0 
 188 -739 0 
 190 -739 0 
 738 -739 0 
 192  194 -740 0 
 192 -741 0 
 194 -741 0 
 740 -741 0 
 738  740 -742 0 
 738 -743 0 
 740 -743 0 
 742 -743 0 
 739  741 -744 0 
 739 -745 0 
 741 -745 0 
 744 -745 0 
 744  743 -746 0 
 744 -747 0 
 743 -747 0 
 746 -747 0 
 202  204 -748 0 
 202 -749 0 
 204 -749 0 
 748 -749 0 
 206  208 -750 0 
 206 -751 0 
 208 -751 0 
 750 -751 0 
 748  750 -752 0 
 748 -753 0 
 750 -753 0 
 752 -753 0 
 749  751 -754 0 
 749 -755 0 
 751 -755 0 
 754 -755 0 
 754  753 -756 0 
 754 -757 0 
 753 -757 0 
 756 -757 0 
 742  752 -758 0 
 742 -759 0 
 752 -759 0 
 758 -759 0 
 747  757 -760 0 
 747 -761 0 
 757 -761 0 
 760 -761 0 
 760  759 -762 0 
 760 -763 0 
 759 -763 0 
 762 -763 0 
 746  756 -764 0 
 746 -765 0 
 756 -765 0 
 764 -765 0 
 745  755 -766 0 
 745 -767 0 
 755 -767 0 
 766 -767 0 
 766  765 -768 0 
 766 -769 0 
 765 -769 0 
 768 -769 0 
 764  762 -770 0 
 764 -771 0 
 762 -771 0 
 770 -771 0 
 768  763 -772 0 
 768 -773 0 
 763 -773 0 
 772 -773 0 
 769  761 -774 0 
 769 -775 0 
 761 -775 0 
 774 -775 0 
 720  758 -776 0 
 720 -777 0 
 758 -777 0 
 776 -777 0 
 735  773 -778 0 
 735 -779 0 
 773 -779 0 
 778 -779 0 
 778  777 -780 0 
 778 -781 0 
 777 -781 0 
 780 -781 0 
 733  771 -782 0 
 733 -783 0 
 771 -783 0 
 782 -783 0 
 737  775 -784 0 
 737 -785 0 
 775 -785 0 
 784 -785 0 
 784  783 -786 0 
 784 -787 0 
 783 -787 0 
 786 -787 0 
 782  780 -788 0 
 782 -789 0 
 780 -789 0 
 788 -789 0 
 786  781 -790 0 
 786 -791 0 
 781 -791 0 
 790 -791 0 
 787  779 -792 0 
 787 -793 0 
 779 -793 0 
 792 -793 0 
 732  770 -794 0 
 732 -795 0 
 770 -795 0 
 794 -795 0 
 736  774 -796 0 
 736 -797 0 
 774 -797 0 
 796 -797 0 
 796  795 -798 0 
 796 -799 0 
 795 -799 0 
 798 -799 0 
 734  772 -800 0 
 734 -801 0 
 772 -801 0 
 800 -801 0 
 729  767 -802 0 
 729 -803 0 
 767 -803 0 
 802 -803 0 
 802  801 -804 0 
 802 -805 0 
 801 -805 0 
 804 -805 0 
 800  798 -806 0 
 800 -807 0 
 798 -807 0 
 806 -807 0 
 804  799 -808 0 
 804 -809 0 
 799 -809 0 
 808 -809 0 
 805  797 -810 0 
 805 -811 0 
 797 -811 0 
 810 -811 0 
 794  788 -812 0 
 794 -813 0 
 788 -813 0 
 812 -813 0 
 806  789 -814 0 
 806 -815 0 
 789 -815 0 
 814 -815 0 
 807  790 -816 0 
 807 -817 0 
 790 -817 0 
 816 -817 0 
 808  791 -818 0 
 808 -819 0 
 791 -819 0 
 818 -819 0 
 809  792 -820 0 
 809 -821 0 
 792 -821 0 
 820 -821 0 
 810  793 -822 0 
 810 -823 0 
 793 -823 0 
 822 -823 0 
 811  785 -824 0 
 811 -825 0 
 785 -825 0 
 824 -825 0 
 650  776 -826 0 
 650 -827 0 
 776 -827 0 
 826 -827 0 
 693  819 -828 0 
 693 -829 0 
 819 -829 0 
 828 -829 0 
 828  827 -830 0 
 828 -831 0 
 827 -831 0 
 830 -831 0 
 689  815 -832 0 
 689 -833 0 
 815 -833 0 
 832 -833 0 
 697  823 -834 0 
 834  833 -835 0 
 834 -836 0 
 833 -836 0 
 835 -836 0 
 832  830 -837 0 
 832 -838 0 
 830 -838 0 
 837 -838 0 
 835  831 -839 0 
 835 -840 0 
 831 -840 0 
 839 -840 0 
 836  829 -841 0 
 836 -842 0 
 829 -842 0 
 841 -842 0 
 687  813 -843 0 
 687 -844 0 
 813 -844 0 
 843 -844 0 
 695  821 -845 0 
 695 -846 0 
 821 -846 0 
 845 -846 0 
 845  844 -847 0 
 845 -848 0 
 844 -848 0 
 847 -848 0 
 691  817 -849 0 
 691 -850 0 
 817 -850 0 
 849 -850 0 
 699  825 -851 0 
 851  850 -852 0 
 851 -853 0 
 850 -853 0 
 852 -853 0 
 849  847 -854 0 
 849 -855 0 
 847 -855 0 
 854 -855 0 
 852  848 -856 0 
 852 -857 0 
 848 -857 0 
 856 -857 0 
 853  846 -858 0 
 843  837 -859 0 
 843 -860 0 
 837 -860 0 
 859 -860 0 
 854  838 -861 0 
 854 -862 0 
 838 -862 0 
 861 -862 0 
 855  839 -863 0 
 855 -864 0 
 839 -864 0 
 863 -864 0 
 856  840 -865 0 
 856 -866 0 
 840 -866 0 
 865 -866 0 
 857  841 -867 0 
 857 -868 0 
 841 -868 0 
 867 -868 0 
 858  842 -869 0 
 686  812 -870 0 
 686 -871 0 
 812 -871 0 
 870 -871 0 
 694  820 -872 0 
 694 -873 0 
 820 -873 0 
 872 -873 0 
 872  871 -874 0 
 872 -875 0 
 871 -875 0 
 874 -875 0 
 690  816 -876 0 
 690 -877 0 
 816 -877 0 
 876 -877 0 
 698  824 -878 0 
 878  877 -879 0 
 878 -880 0 
 877 -880 0 
 879 -880 0 
 876  874 -881 0 
 876 -882 0 
 874 -882 0 
 881 -882 0 
 879  875 -883 0 
 879 -884 0 
 875 -884 0 
 883 -884 0 
 880  873 -885 0 
 688  814 -886 0 
 688 -887 0 
 814 -887 0 
 886 -887 0 
 696  822 -888 0 
 888  887 -889 0 
 888 -890 0 
 887 -890 0 
 889 -890 0 
 692  818 -891 0 
 692 -892 0 
 818 -892 0 
 891 -892 0 
 677  803 -893 0 
 893  892 -894 0 
 891  889 -895 0 
 891 -896 0 
 889 -896 0 
 895 -896 0 
 894  890 -897 0 
 894 -898 0 
 890 -898 0 
 897 -898 0 
 886  881 -899 0 
 886 -900 0 
 881 -900 0 
 899 -900 0 
 895  882 -901 0 
 895 -902 0 
 882 -902 0 
 901 -902 0 
 896  883 -903 0 
 896 -904 0 
 883 -904 0 
 903 -904 0 
 897  884 -905 0 
 897 -906 0 
 884 -906 0 
 905 -906 0 
 898  885 -907 0 
 898 -908 0 
 885 -908 0 
 907 -908 0 
 870  859 -909 0 
 870 -910 0 
 859 -910 0 
 909 -910 0 
 899  860 -911 0 
 899 -912 0 
 860 -912 0 
 911 -912 0 
 900  861 -913 0 
 900 -914 0 
 861 -914 0 
 913 -914 0 
 901  862 -915 0 
 901 -916 0 
 862 -916 0 
 915 -916 0 
 902  863 -917 0 
 902 -918 0 
 863 -918 0 
 917 -918 0 
 903  864 -919 0 
 903 -920 0 
 864 -920 0 
 919 -920 0 
 904  865 -921 0 
 905 -922 0 
 866 -922 0 
 923 -922 0 
 906  867 -924 0 
 906 -925 0 
 867 -925 0 
 924 -925 0 
 907  868 -926 0 
 907 -927 0 
 868 -927 0 
 926 -927 0 
 908  869 -928 0 
 369  371 -929 0 
 369 -930 0 
 371 -930 0 
 929 -930 0 
 373  375 -931 0 
 373 -932 0 
 375 -932 0 
 931 -932 0 
 929  931 -933 0 
 929 -934 0 
 931 -934 0 
 933 -934 0 
 930  932 -935 0 
 930 -936 0 
 932 -936 0 
 935 -936 0 
 935  934 -937 0 
 935 -938 0 
 934 -938 0 
 937 -938 0 
 383  385 -939 0 
 383 -940 0 
 385 -940 0 
 939 -940 0 
 387  389 -941 0 
 387 -942 0 
 389 -942 0 
 941 -942 0 
 939  941 -943 0 
 939 -944 0 
 941 -944 0 
 943 -944 0 
 940  942 -945 0 
 940 -946 0 
 942 -946 0 
 945 -946 0 
 945  944 -947 0 
 945 -948 0 
 944 -948 0 
 947 -948 0 
 933  943 -949 0 
 933 -950 0 
 943 -950 0 
 949 -950 0 
 938  948 -951 0 
 938 -952 0 
 948 -952 0 
 951 -952 0 
 951  950 -953 0 
 951 -954 0 
 950 -954 0 
 953 -954 0 
 937  947 -955 0 
 937 -956 0 
 947 -956 0 
 955 -956 0 
 936  946 -957 0 
 936 -958 0 
 946 -958 0 
 957 -958 0 
 957  956 -959 0 
 957 -960 0 
 956 -960 0 
 959 -960 0 
 955  953 -961 0 
 955 -962 0 
 953 -962 0 
 961 -962 0 
 959  954 -963 0 
 959 -964 0 
 954 -964 0 
 963 -964 0 
 960  952 -965 0 
 960 -966 0 
 952 -966 0 
 965 -966 0 
 415  417 -967 0 
 415 -968 0 
 417 -968 0 
 967 -968 0 
 419  421 -969 0 
 419 -970 0 
 421 -970 0 
 969 -970 0 
 967  969 -971 0 
 967 -972 0 
 969 -972 0 
 971 -972 0 
 968  970 -973 0 
 968 -974 0 
 970 -974 0 
 973 -974 0 
 973  972 -975 0 
 973 -976 0 
 972 -976 0 
 975 -976 0 
 429  431 -977 0 
 429 -978 0 
 431 -978 0 
 977 -978 0 
 433  435 -979 0 
 433 -980 0 
 435 -980 0 
 979 -980 0 
 977  979 -981 0 
 977 -982 0 
 979 -982 0 
 981 -982 0 
 978  980 -983 0 
 978 -984 0 
 980 -984 0 
 983 -984 0 
 983  982 -985 0 
 983 -986 0 
 982 -986 0 
 985 -986 0 
 971  981 -987 0 
 971 -988 0 
 981 -988 0 
 987 -988 0 
 976  986 -989 0 
 976 -990 0 
 986 -990 0 
 989 -990 0 
 989  988 -991 0 
 989 -992 0 
 988 -992 0 
 991 -992 0 
 975  985 -993 0 
 975 -994 0 
 985 -994 0 
 993 -994 0 
 974  984 -995 0 
 974 -996 0 
 984 -996 0 
 995 -996 0 
 995  994 -997 0 
 995 -998 0 
 994 -998 0 
 997 -998 0 
 993  991 -999 0 
 993 -1000 0 
 991 -1000 0 
 999 -1000 0 
 997  992 -1001 0 
 997 -1002 0 
 992 -1002 0 
 1001 -1002 0 
 998  990 -1003 0 
 998 -1004 0 
 990 -1004 0 
 1003 -1004 0 
 949  987 -1005 0 
 949 -1006 0 
 987 -1006 0 
 1005 -1006 0 
 964  1002 -1007 0 
 964 -1008 0 
 1002 -1008 0 
 1007 -1008 0 
 1007  1006 -1009 0 
 1007 -1010 0 
 1006 -1010 0 
 1009 -1010 0 
 962  1000 -1011 0 
 962 -1012 0 
 1000 -1012 0 
 1011 -1012 0 
 966  1004 -1013 0 
 966 -1014 0 
 1004 -1014 0 
 1013 -1014 0 
 1013  1012 -1015 0 
 1013 -1016 0 
 1012 -1016 0 
 1015 -1016 0 
 1011  1009 -1017 0 
 1011 -1018 0 
 1009 -1018 0 
 1017 -1018 0 
 1015  1010 -1019 0 
 1015 -1020 0 
 1010 -1020 0 
 1019 -1020 0 
 1016  1008 -1021 0 
 1016 -1022 0 
 1008 -1022 0 
 1021 -1022 0 
 961  999 -1023 0 
 961 -1024 0 
 999 -1024 0 
 1023 -1024 0 
 965  1003 -1025 0 
 965 -1026 0 
 1003 -1026 0 
 1025 -1026 0 
 1025  1024 -1027 0 
 1025 -1028 0 
 1024 -1028 0 
 1027 -1028 0 
 963  1001 -1029 0 
 963 -1030 0 
 1001 -1030 0 
 1029 -1030 0 
 958  996 -1031 0 
 1031  1030 -1032 0 
 1031 -1033 0 
 1030 -1033 0 
 1032 -1033 0 
 1029  1027 -1034 0 
 1029 -1035 0 
 1027 -1035 0 
 1034 -1035 0 
 1032  1028 -1036 0 
 1032 -1037 0 
 1028 -1037 0 
 1036 -1037 0 
 1033  1026 -1038 0 
 1033 -1039 0 
 1026 -1039 0 
 1038 -1039 0 
 1023  1017 -1040 0 
 1023 -1041 0 
 1017 -1041 0 
 1040 -1041 0 
 1034  1018 -1042 0 
 1034 -1043 0 
 1018 -1043 0 
 1042 -1043 0 
 1035  1019 -1044 0 
 1035 -1045 0 
 1019 -1045 0 
 1044 -1045 0 
 1036  1020 -1046 0 
 1036 -1047 0 
 1020 -1047 0 
 1046 -1047 0 
 1037  1021 -1048 0 
 1037 -1049 0 
 1021 -1049 0 
 1048 -1049 0 
 1038  1022 -1050 0 
 1038 -1051 0 
 1022 -1051 0 
 1050 -1051 0 
 1039  1014 -1052 0 
 1039 -1053 0 
 1014 -1053 0 
 1052 -1053 0 
 1043  1047 -1054 0 
 1043 -1055 0 
 1047 -1055 0 
 1054 -1055 0 
 1045  1049 -1056 0 
 1045 -1057 0 
 1049 -1057 0 
 1056 -1057 0 
 1041  1054 -1058 0 
 1041 -1059 0 
 1054 -1059 0 
 1058 -1059 0 
 1056  1055 -1060 0 
 1056 -1061 0 
 1055 -1061 0 
 1060 -1061 0 
 1057  1051 -1062 0 
 1057 -1063 0 
 1051 -1063 0 
 1062 -1063 0 
 1044  1048 -1064 0 
 1044 -1065 0 
 1048 -1065 0 
 1064 -1065 0 
 1046  1050 -1066 0 
 1046 -1067 0 
 1050 -1067 0 
 1066 -1067 0 
 1042  1064 -1068 0 
 1042 -1069 0 
 1064 -1069 0 
 1068 -1069 0 
 1066  1065 -1070 0 
 1066 -1071 0 
 1065 -1071 0 
 1070 -1071 0 
 1067  1052 -1072 0 
 1067 -1073 0 
 1052 -1073 0 
 1072 -1073 0 
 1040  1058 -1074 0 
 1040 -1075 0 
 1058 -1075 0 
 1074 -1075 0 
 1068  1059 -1076 0 
 1068 -1077 0 
 1059 -1077 0 
 1076 -1077 0 
 1069  1060 -1078 0 
 1069 -1079 0 
 1060 -1079 0 
 1078 -1079 0 
 1070  1061 -1080 0 
 1070 -1081 0 
 1061 -1081 0 
 1080 -1081 0 
 1071  1062 -1082 0 
 1071 -1083 0 
 1062 -1083 0 
 1082 -1083 0 
 1072  1063 -1084 0 
 1072 -1085 0 
 1063 -1085 0 
 1084 -1085 0 
 1073  1053 -1086 0 
 826  1005 0 
 826 -1087 0 
 1005 -1087 0 
 1088 -1087 0 
 922  1087 -1089 0 
 916  1081 -1090 0 
 1090  1089 0 
 1090 -1091 0 
 1089 -1091 0 
 1088 -1091 0 
 912  1077 0 
 912 -1092 0 
 1077 -1092 0 
 1088 -1092 0 
 927  1092 -1093 0 
 920  1085 -1094 0 
 1094  1093 -1095 0 
 1095  1091 0 
 910  1075 0 
 910 -1096 0 
 1075 -1096 0 
 1088 -1096 0 
 925  1096 -1097 0 
 918  1083 -1098 0 
 1098  1097 0 
 914  1079 0 
 909  1074 0 
 909 -1099 0 
 1074 -1099 0 
 1088 -1099 0 
 924  1099 -1100 0 
 917  1082 -1101 0 
 1101  1100 0 
 1101 -1102 0 
 1100 -1102 0 
 1088 -1102 0 
 913  1078 0 
 913 -1103 0 
 1078 -1103 0 
 1088 -1103 0 
 928  1103 -1104 0 
 921  1086 -1105 0 
 1105  1104 -1106 0 
 1106  1102 -1107 0 
 911  1076 0 
 911 -1108 0 
 1076 -1108 0 
 1088 -1108 0 
 926  1108 -1109 0 
 919  1084 -1110 0 
 1110  1109 -1111 0 
 915  1080 -1112 0 
 1112  1111 0 
 1112 -1113 0 
 1111 -1113 0 
 1088 -1113 0 
 1113  1107 0 
